
===== New CPLEX run =====
Instance: /home/yorig/tuner/mpils-tests/instances/miplib/easy/lotsize.mps
Config: /scratch/yorig/mpils-results-grid-seconds-5-watchdog/easy/24proc/seed-5/4_lotsize_seed-5_20260504_011421/expansion/config_param_CPXPARAM_MIP_Strategy_RINSHeur_20_iter_1.prm
========================

Selected objective sense:  MINIMIZE
Selected objective  name:  R1921
Selected RHS        name:  B
Selected bound      name:  BOUND
Wall watchdog: enabled factor=1 grace=1 limit=6 seconds
Version identifier: 22.1.2.0 | 2024-11-26 | 0edbb82fd
CPXPARAM_Threads                                 8
CPXPARAM_Parallel                                1
CPXPARAM_MIP_Cuts_Cliques                        -1
CPXPARAM_MIP_Cuts_Implied                        1
CPXPARAM_MIP_Limits_GomoryCand                   25
CPXPARAM_MIP_Cuts_Gomory                         1
CPXPARAM_MIP_Cuts_PathCut                        2
CPXPARAM_MIP_Cuts_Disjunctive                    -1
CPXPARAM_Emphasis_MIP                            1
CPXPARAM_MIP_Strategy_RINSHeur                   20
CPXPARAM_TimeLimit                               5
Tried aggregator 1 time.
MIP Presolve eliminated 595 rows and 0 columns.
MIP Presolve added 1190 rows and 0 columns.
MIP Presolve modified 10 coefficients.
Reduced MIP has 2515 rows, 2985 columns, and 7755 nonzeros.
Reduced MIP has 1195 binaries, 0 generals, 0 SOSs, and 0 indicators.
Presolve time = 0.00 sec. (4.53 ticks)
Probing fixed 0 vars, tightened 5487 bounds.
Probing time = 0.01 sec. (18.38 ticks)
Tried aggregator 2 times.
Detecting symmetries...
MIP Presolve modified 1206 coefficients.
Aggregator did 10 substitutions.
Reduced MIP has 2505 rows, 2975 columns, and 7735 nonzeros.
Reduced MIP has 1195 binaries, 0 generals, 0 SOSs, and 0 indicators.
Presolve time = 0.00 sec. (6.66 ticks)
Probing fixed 0 vars, tightened 2401 bounds.
Probing time = 0.00 sec. (6.41 ticks)
Clique table members: 190.
MIP emphasis: integer feasibility.
MIP search method: dynamic search.
Parallel mode: deterministic, using up to 8 threads.
Root relaxation solution time = 0.02 sec. (9.71 ticks)

        Nodes                                         Cuts/
   Node  Left     Objective  IInf  Best Integer    Best Bound    ItCnt     Gap

      0     0   348385.3466   472                 348385.3466      882         
      0     0   572993.6826   462                   Cuts: 726     1894         
      0     0   807159.4456   704                   Cuts: 726     2768         
      0     0   945132.1728   699                   Cuts: 726     3494         
*     0+    0                       1.01740e+07   945132.1728            90.71%
*     0+    0                      7973370.0000   945132.1728            88.15%
*     0+    0                      1940615.0000   945132.1728            51.30%
Detecting symmetries...
      0     2   945132.1728   699  1940615.0000  1136962.5546     3494   41.41%
Elapsed time = 1.16 sec. (1628.97 ticks, tree = 0.02 MB, solutions = 3)
    264   206   994753.0193   715  1940615.0000  1136962.5546     8884   41.41%
    789   680  1032135.6270   611  1940615.0000  1136962.5546    14659   41.41%
   1463  1272  1096843.0535   445  1940615.0000  1136962.5546    22853   41.41%

Performing restart 1

Repeating presolve.
Tried aggregator 1 time.
MIP Presolve modified 1336 coefficients.
Reduced MIP has 2505 rows, 2975 columns, and 7735 nonzeros.
Reduced MIP has 1195 binaries, 0 generals, 0 SOSs, and 0 indicators.
Presolve time = 0.00 sec. (3.89 ticks)
Tried aggregator 1 time.
MIP Presolve modified 947 coefficients.
Reduced MIP has 2505 rows, 2975 columns, and 7735 nonzeros.
Reduced MIP has 1195 binaries, 0 generals, 0 SOSs, and 0 indicators.
Presolve time = 0.00 sec. (5.12 ticks)
Represolve time = 0.02 sec. (18.43 ticks)
   1703     0  1087971.3504   735  1940615.0000     Cuts: 726    32313   41.41%
   1703     0  1179426.2933   686  1940615.0000     Cuts: 726    33123   39.22%
   1703     0  1246901.2793   736  1940615.0000     Cuts: 726    33912   35.75%
Advanced basis not built.

Cover cuts applied:  23
Implied bound cuts applied:  13
Flow cuts applied:  404
Mixed integer rounding cuts applied:  761
Flow path cuts applied:  66
Multi commodity flow cuts applied:  14
Lift and project cuts applied:  10
Gomory fractional cuts applied:  3

Root node processing (before b&c):
  Real time             =    1.15 sec. (1625.01 ticks)
Parallel b&c, 8 threads:
  Real time             =    3.85 sec. (5043.49 ticks)
  Sync time (average)   =    0.04 sec.
  Wait time (average)   =    0.00 sec.
                          ------------
Total (root+branch&cut) =    5.01 sec. (6668.50 ticks)
Gap: 35.75%
Upper bound: 1.94062e+06
Lower bound: 1.2469e+06
Termination status: Normal
End of CPLEX run. Time: 5.00684 seconds

===== New CPLEX run =====
Instance: /home/yorig/tuner/mpils-tests/instances/miplib/easy/lotsize.mps
Config: /scratch/yorig/mpils-results-grid-seconds-5-watchdog/easy/24proc/seed-5/4_lotsize_seed-5_20260504_011421/expansion/config_param_CPXPARAM_MIP_Strategy_RINSHeur_40_iter_1.prm
========================

Selected objective sense:  MINIMIZE
Selected objective  name:  R1921
Selected RHS        name:  B
Selected bound      name:  BOUND
Wall watchdog: enabled factor=1 grace=1 limit=6 seconds
Version identifier: 22.1.2.0 | 2024-11-26 | 0edbb82fd
CPXPARAM_Threads                                 8
CPXPARAM_Parallel                                1
CPXPARAM_MIP_Cuts_Cliques                        -1
CPXPARAM_MIP_Cuts_Implied                        1
CPXPARAM_MIP_Limits_GomoryCand                   25
CPXPARAM_MIP_Cuts_Gomory                         1
CPXPARAM_MIP_Cuts_PathCut                        2
CPXPARAM_MIP_Cuts_Disjunctive                    -1
CPXPARAM_Emphasis_MIP                            1
CPXPARAM_MIP_Strategy_RINSHeur                   40
CPXPARAM_TimeLimit                               5
Tried aggregator 1 time.
MIP Presolve eliminated 595 rows and 0 columns.
MIP Presolve added 1190 rows and 0 columns.
MIP Presolve modified 10 coefficients.
Reduced MIP has 2515 rows, 2985 columns, and 7755 nonzeros.
Reduced MIP has 1195 binaries, 0 generals, 0 SOSs, and 0 indicators.
Presolve time = 0.00 sec. (4.53 ticks)
Probing fixed 0 vars, tightened 5487 bounds.
Probing time = 0.01 sec. (18.38 ticks)
Tried aggregator 2 times.
Detecting symmetries...
MIP Presolve modified 1206 coefficients.
Aggregator did 10 substitutions.
Reduced MIP has 2505 rows, 2975 columns, and 7735 nonzeros.
Reduced MIP has 1195 binaries, 0 generals, 0 SOSs, and 0 indicators.
Presolve time = 0.00 sec. (6.66 ticks)
Probing fixed 0 vars, tightened 2401 bounds.
Probing time = 0.00 sec. (6.41 ticks)
Clique table members: 190.
MIP emphasis: integer feasibility.
MIP search method: dynamic search.
Parallel mode: deterministic, using up to 8 threads.
Root relaxation solution time = 0.01 sec. (9.71 ticks)

        Nodes                                         Cuts/
   Node  Left     Objective  IInf  Best Integer    Best Bound    ItCnt     Gap

      0     0   348385.3466   472                 348385.3466      882         
      0     0   572993.6826   462                   Cuts: 726     1894         
      0     0   807159.4456   704                   Cuts: 726     2768         
      0     0   945132.1728   699                   Cuts: 726     3494         
*     0+    0                       1.01740e+07   945132.1728            90.71%
*     0+    0                      7973370.0000   945132.1728            88.15%
*     0+    0                      1940615.0000   945132.1728            51.30%
Detecting symmetries...
      0     2   945132.1728   699  1940615.0000  1136962.5546     3494   41.41%
Elapsed time = 1.17 sec. (1628.97 ticks, tree = 0.02 MB, solutions = 3)
    264   206   994753.0193   715  1940615.0000  1136962.5546     8884   41.41%
    789   680  1032135.6270   611  1940615.0000  1136962.5546    14659   41.41%
   1463  1272  1096843.0535   445  1940615.0000  1136962.5546    22853   41.41%

Performing restart 1

Repeating presolve.
Tried aggregator 1 time.
MIP Presolve modified 1336 coefficients.
Reduced MIP has 2505 rows, 2975 columns, and 7735 nonzeros.
Reduced MIP has 1195 binaries, 0 generals, 0 SOSs, and 0 indicators.
Presolve time = 0.00 sec. (3.89 ticks)
Tried aggregator 1 time.
MIP Presolve modified 947 coefficients.
Reduced MIP has 2505 rows, 2975 columns, and 7735 nonzeros.
Reduced MIP has 1195 binaries, 0 generals, 0 SOSs, and 0 indicators.
Presolve time = 0.00 sec. (5.12 ticks)
Represolve time = 0.02 sec. (18.43 ticks)
   1703     0  1087971.3504   735  1940615.0000     Cuts: 726    32313   41.41%
   1703     0  1179426.2933   686  1940615.0000     Cuts: 726    33123   39.22%
   1703     0  1246901.2793   736  1940615.0000     Cuts: 726    33912   35.75%
Advanced basis not built.

Cover cuts applied:  23
Implied bound cuts applied:  13
Flow cuts applied:  404
Mixed integer rounding cuts applied:  761
Flow path cuts applied:  66
Multi commodity flow cuts applied:  14
Lift and project cuts applied:  10
Gomory fractional cuts applied:  3

Root node processing (before b&c):
  Real time             =    1.17 sec. (1625.01 ticks)
Parallel b&c, 8 threads:
  Real time             =    3.84 sec. (5006.90 ticks)
  Sync time (average)   =    0.04 sec.
  Wait time (average)   =    0.00 sec.
                          ------------
Total (root+branch&cut) =    5.01 sec. (6631.91 ticks)
Gap: 35.75%
Upper bound: 1.94062e+06
Lower bound: 1.2469e+06
Termination status: Normal
End of CPLEX run. Time: 5.01131 seconds
